0_instance_selection/optil_deployment/lite/optil/private/vc-lite_008.in
p td 313 566
1 294
1 188
294 29
294 32
294 53
294 56
294 70
294 84
294 97
294 132
294 142
294 177
294 223
2 295
2 128
2 135
2 156
2 225
2 247
2 252
2 255
2 258
2 290
295 23
295 62
295 82
295 87
295 91
295 118
295 140
295 150
295 212
295 214
295 217
3 296
3 153
296 39
296 72
296 126
296 144
4 297
4 83
4 123
4 187
4 281
297 46
297 94
297 149
297 152
297 181
297 215
297 253
297 263
5 298
5 59
5 100
5 165
5 193
5 211
5 219
5 228
5 234
298 35
298 43
298 48
298 93
298 168
298 174
6 299
6 162
6 175
6 200
6 238
6 270
299 67
299 102
299 173
299 218
7 300
7 21
7 27
7 36
7 45
7 75
7 99
7 138
7 170
7 180
7 194
7 227
7 239
7 254
7 260
300 104
300 216
300 231
8 301
8 52
8 205
8 235
301 22
301 41
301 63
301 96
301 114
301 136
301 163
301 249
301 266
301 283
9 302
9 44
9 50
9 54
9 86
9 113
9 143
9 185
9 190
9 220
9 236
9 265
302 79
302 116
302 145
302 197
302 203
302 242
302 268
10 303
10 108
10 130
10 171
10 221
10 237
10 243
10 261
303 76
303 117
303 124
303 178
303 182
303 186
303 195
303 199
303 204
303 273
303 292
11 304
11 34
11 81
11 127
11 210
11 232
11 277
11 291
304 40
304 49
304 73
304 101
304 115
304 137
304 151
304 169
304 196
304 250
12 305
12 61
12 69
12 112
12 158
12 161
305 42
305 107
305 109
305 208
305 288
13 306
13 24
13 30
13 71
13 80
13 92
13 106
13 147
13 209
306 74
306 191
306 282
14 307
14 148
14 241
14 274
14 279
307 28
307 31
307 85
307 88
307 155
307 293
15 308
15 64
15 119
15 120
15 176
15 183
15 189
15 245
15 257
308 26
308 89
308 111
308 134
308 141
308 202
308 233
308 285
308 289
16 309
16 25
16 60
16 213
16 267
309 37
309 47
309 55
309 160
309 278
17 310
17 33
17 57
17 105
17 121
17 129
17 166
17 172
17 207
17 224
17 251
17 272
17 287
310 78
310 98
310 139
310 157
310 184
310 198
310 230
310 246
310 262
18 311
18 58
18 110
18 154
18 222
18 248
18 286
311 66
311 131
311 133
311 179
311 206
311 226
311 240
311 264
311 284
19 312
19 51
19 90
19 122
19 125
19 164
19 167
19 269
312 65
312 192
312 259
312 280
20 313
20 68
20 95
20 146
20 229
20 244
20 276
313 38
313 77
313 103
313 159
313 201
313 256
313 271
313 275
21 22
21 23
22 23
24 25
24 26
25 26
27 28
27 29
28 29
30 31
30 32
31 32
33 34
33 35
34 35
36 37
36 38
37 38
39 40
39 41
40 41
42 43
42 44
43 44
45 46
45 47
46 47
48 49
48 50
49 50
51 52
51 53
52 53
54 55
54 56
55 56
57 58
57 59
58 59
60 61
60 62
61 62
63 64
63 65
64 65
66 67
66 68
67 68
69 70
69 71
70 71
72 73
72 74
73 74
75 76
75 77
76 77
78 79
78 80
79 80
81 82
81 83
82 83
84 85
84 86
85 86
87 88
87 89
88 89
90 91
90 92
91 92
93 94
93 95
94 95
96 97
96 98
97 98
99 100
99 101
100 101
102 103
102 104
103 104
105 106
105 107
106 107
108 109
108 110
109 110
111 112
111 113
112 113
114 115
114 116
115 116
117 118
117 119
118 119
120 121
120 122
121 122
123 124
123 125
124 125
126 127
126 128
127 128
129 130
129 131
130 131
132 133
132 134
133 134
135 136
135 137
136 137
138 139
138 140
139 140
141 142
141 143
142 143
144 145
144 146
145 146
147 148
147 149
148 149
150 151
150 152
151 152
153 154
153 155
154 155
156 157
156 158
157 158
159 160
159 161
160 161
162 163
162 164
163 164
165 166
165 167
166 167
168 169
168 170
169 170
171 172
171 173
172 173
174 175
174 176
175 176
177 178
177 179
178 179
180 181
180 182
181 182
183 184
183 185
184 185
186 187
186 188
187 188
189 190
189 191
190 191
192 193
192 194
193 194
195 196
195 197
196 197
198 199
198 200
199 200
201 202
201 203
202 203
204 205
204 206
205 206
207 208
207 209
208 209
210 211
210 212
211 212
213 214
213 215
214 215
216 217
216 218
217 218
219 220
219 221
220 221
222 223
222 224
223 224
225 226
225 227
226 227
228 229
228 230
229 230
231 232
231 233
232 233
234 235
234 236
235 236
237 238
237 239
238 239
240 241
240 242
241 242
243 244
243 245
244 245
246 247
246 248
247 248
249 250
249 251
250 251
252 253
252 254
253 254
255 256
255 257
256 257
258 259
258 260
259 260
261 262
261 263
262 263
264 265
264 266
265 266
267 268
267 269
268 269
270 271
270 272
271 272
273 274
273 275
274 275
276 277
276 278
277 278
279 280
279 281
280 281
282 283
282 284
283 284
285 286
285 287
286 287
288 289
288 290
289 290
291 292
291 293
292 293
