0_instance_selection/optil_deployment/lite/optil/private/vc-lite_008.out
s vc 313 202
2
5
7
9
11
13
15
16
17
22
23
24
26
27
29
30
32
33
35
36
37
40
41
42
43
45
47
48
49
51
52
54
55
57
58
61
62
63
64
66
68
69
71
73
74
75
76
78
79
82
83
84
86
87
89
90
91
93
95
96
98
99
101
103
104
105
107
108
110
111
112
115
116
118
119
121
122
123
125
126
127
129
130
132
134
136
137
139
140
141
143
145
146
147
148
150
151
153
154
157
158
160
161
162
164
166
167
168
169
171
172
174
175
177
179
180
182
184
185
187
188
189
191
192
194
196
197
198
200
202
203
205
206
207
208
210
212
214
215
216
217
220
221
222
224
226
227
229
230
231
233
235
236
237
238
241
242
243
244
246
248
250
251
252
254
256
257
258
260
261
262
264
265
268
269
270
272
273
274
276
278
279
281
282
284
285
286
288
289
291
292
294
296
297
299
301
303
305
307
311
312
313
